2511480557304039445504,5,1,2,014,9,1,2,011,11,1,2,015,15,1,2,09,7,1,2,01,15,1,2,011,15,1,2,01,8,1,2,05,10,1,2,012,3,1,2,013,5,1,2,07,7,1,2,013,7,1,2,07,12,1,2,013,3,1,2,013,12,1,2,08,9,1,2,04,7,1,2,09,10,1,2,02,15,1,2,015,1,1,2,015,12,1,2,02,5,1,2,010,11,1,2,013,2,1,2,01,4,1,2,01,9,1,2,012,6,1,2,010,3,1,2,09,1,1,2,03,1,1,2,010,2,1,2,011,10,1,2,01,13,1,2,01,14,1,2,012,15,1,2,02,10,1,2,09,2,1,2,06,12,1,2,03,7,1,2,012,11,1,2,010,13,1,2,03,1,1,2,012,9,1,2,05,14,1,2,07,13,1,2,01,5,1,2,015,11,1,2,06,7,1,2,09,10,1,2,0